VRPTWMS/instances/mip/freight/5/N5-C_DV10-C_SV50_F12_21_No_1.log

Gurobi 6.0.4 (win64) logging started 06/13/15 23:06:43

Warning: unknown variable 'kDash_dN' in bounds section
Read LP format model from file C:\MT\repository\VRPTWMS\instances\mip\freight\N5-C_DV10-C_SV50_F12_21_No_1.lp
Reading time = 0.01 seconds
(null): 161 rows, 110 columns, 603 nonzeros
Optimize a model with 161 rows, 110 columns and 603 nonzeros
Model has 180 quadratic constraints
WARNING: Only barrier available for SOCP models
Coefficient statistics:
  Matrix range    [1e+00, 1e+02]
  Objective range [5e+00, 1e+03]
  Bounds range    [1e+00, 1e+02]
  RHS range       [1e+00, 1e+02]
Presolve removed 25 rows and 12 columns
Presolve time: 0.02s
Presolved: 591 rows, 338 columns, 2554 nonzeros
Variable types: 215 continuous, 123 integer (90 binary)
Found heuristic solution: objective 5174.8000000
Optimize a model with 591 rows, 338 columns and 2554 nonzeros
Coefficient statistics:
  Matrix range    [1e+00, 1e+02]
  Objective range [5e+00, 1e+03]
  Bounds range    [1e+00, 1e+02]
  RHS range       [1e+00, 1e+02]
Presolve removed 32 rows and 19 columns
Presolved: 559 rows, 319 columns, 2407 nonzeros


Root relaxation: objective 1.103397e+03, 57 iterations, 0.00 seconds

    Nodes    |    Current Node    |     Objective Bounds      |     Work
 Expl Unexpl |  Obj  Depth IntInf | Incumbent    BestBd   Gap | It/Node Time

     0     0 1103.39704    0   39 5174.80000 1103.39704  78.7%     -    0s
H    0     0                    3141.8900000 1103.39704  64.9%     -    0s
     0     0 1123.86050    0   24 3141.89000 1123.86050  64.2%     -    0s
H    0     0                    3141.0400000 1123.86050  64.2%     -    0s
     0     0 1132.69895    0   38 3141.04000 1132.69895  63.9%     -    0s
     0     0 1133.35766    0   47 3141.04000 1133.35766  63.9%     -    0s
     0     0 1133.36333    0   39 3141.04000 1133.36333  63.9%     -    0s
     0     0 1133.36333    0   40 3141.04000 1133.36333  63.9%     -    0s
     0     0 1133.36333    0   32 3141.04000 1133.36333  63.9%     -    0s
     0     0 1133.36333    0   30 3141.04000 1133.36333  63.9%     -    0s
     0     0 1133.36333    0   28 3141.04000 1133.36333  63.9%     -    0s
     0     2 1133.36333    0   27 3141.04000 1133.36333  63.9%     -    0s
*   21    11              14    2201.4400000 1138.87000  48.3%  28.7    0s
H  133    42                    2177.0200000 1156.38447  46.9%  33.3    0s

Cutting planes:
  Gomory: 3
  Cover: 35
  Implied bound: 55
  Clique: 18
  MIR: 25
  Flow cover: 1
  GUB cover: 8

Explored 291 nodes (8318 simplex iterations) in 0.25 seconds
Thread count was 2 (of 4 available processors)

Optimal solution found (tolerance 1.00e-04)
Best objective 2.177020000000e+03, best bound 2.177020000000e+03, gap 0.0%
k_c1	8.0
k_c2	0.0
k_c3	4.0
k_c4	10.0
k_c5	0.0
k_dN	-0.0
kDash_c1	-0.0
kDash_c2	8.0
kDash_c3	-0.0
kDash_c4	5.0
kDash_c5	6.0
kDash_dN	-0.0
o_1	0.0
o_2	1.0
o_3	-0.0
o_4	0.0
o_5	1.0
p_1	0.0
p_2	1.0
p_3	0.0
p_4	0.0
p_5	1.0000000000000036
phi_c1	1.0
phi_c2	2.0
phi_c3	5.0
phi_c4	10.0
phi_c5	7.000000000000007
phi_d0	12.0
phi_dN	-0.0
pi_c1	10.0
pi_c2	10.0
pi_c3	18.0
pi_c4	5.0
pi_c5	20.0
pi_dN	-0.0
tauD_c1	80.0
tauD_c2	59.0
tauD_c3	48.0
tauD_c4	7.0
tauD_c5	27.0
tauD_d0	-0.0
tauD_dN	100.0
tauS_c1	88.0
tauS_c2	40.0
tauS_c3	78.0
tauS_c4	-0.0
tauS_c5	4.0
tauS_d0	-0.0
tauS_dN	69.0
x_c1_dN	1.0
x_c2_c1	1.0
x_c3_c2	1.0
x_c4_c5	1.0
x_c5_c3	1.0
x_d0_c4	1.0
z_c2_dN	1.0
z_c5_c2	1.0
z_d0_c5	1.0000000000000036
